c The Unicorn puzzle
c
c  1 mythical?
c  2 immortal?
c  3 mammal?
c  4 horned?
c  5 magical?
c
c If the unicorn is mythical, then it is immortal.
c 
c If the unicorn is not mythical, then it is a mortal mammal.
c 
c If the unicorn is either immortal or a mammal, then it is horned.
c 
c The unicorn is magical if it is horned.
c 

p cnf 5 7
-1 2 0
1 -2 0
1 3 0
-1 4 0
-3 4 0
-4 5 0
-5 0

c 1 2 -3 -4 -5 0    not mythical, not immortal, mammal, horned and magical
c -1 -2 3 -4 -5 0   mythical, immortal, not mammal, horned, magical 
c -1 -2 -3 -4 -5 0  mythical, immortal, mammal, horned, magical




